# Generated by setup_lammps

pair_style      lj/cut  2.5  

mass   1      1.0000 # LJ

pair_coeff  1     1      1.00 1.00  2.500 # N    ALA 
