pair_style      lj/cut 2.5

mass            1 1.0 # H

pair_coeff      1 1 1.0 1.0 2.5

